21748
1 0 0 1 1 1 0 0 1 0 0 0 1 1 1 0 1 0 1 1 0 1 0 0 1 1 1 1 1 0 
18 19 21 27 21 12 21 27 27 28 4 28 13 13 28 18 3 13 27 0 18 16 5 24 13 18 27 14 4 21 19 19 4 16 27 12 8 8 24 16 18 8 19 4 8 26 13 21 19 14 24 16 24 16 8 12 18 8 18 25 4 0 18 8 13 25 5 14 19 25 18 12 19 8 5 13 8 5 8 16 13 0 26 25 4 13 19 5 27 18 28 19 25 25 0 3 28 12 0 28 28 16 25 18 4 0 4 24 16 3 19 4 27 12 12 8 28 25 14 8 26 25 28 19 26 16 21 12 26 0 28 24 25 14 5 26 3 3 28 14 12 27 28 25 25 5 24 16 27 25 24 0 13 0 8 28 5 16 3 13 13 27 13 24 5 27 5 4 3 21 5 8 19 14 26 21 0 14 4 14 5 21 24 19 12 8 28 13 0 21 21 21 19 4 25 12 18 21 14 19 
